17	4	3
23	36	23	21	28	54	44	
0	0	0	0	0	10	5	8	8	9	10	3	2	3	4
10	4	6	6	3	8	1	1	5	8	4	3	5	6	8
8	1	9	0	5	2	5	10	6	4	1	2	10	13
4	3	5	4	0	8	10	4	2	6	7	1	17
10	1	4	3	2	1	8	10	8	1	5	3	7	11	16
175	10	0	3	5	5	1	10	3	8	8	1	13
25	7	0	0	10	2	6	9	3	10	6	2	9	12
75	2	2	0	0	7	2	10	6	8	4	1	17
50	9	0	0	3	6	6	3	9	8	8	1	17
125	4	1	9	5	6	9	6	6	6	7	1	17
150	1	3	7	4	1	1	7	1	3	5	1	14
225	1	5	0	3	9	4	10	7	7	10	1	17
7	7	0	4	0	2	3	1	2	9	8	1	17
5	1	10	10	8	5	5	4	8	4	1	2	15	17
3	1	1	0	3	5	10	9	1	5	5	1	17
3	4	10	6	0	7	6	5	3	6	7	1	17
0	0	0	0	0	7	5	1	6	1	7	0
